************************************************************************
file with basedata            : cm450_.bas
initial value random generator: 660844509
************************************************************************
projects                      :  1
jobs (incl. supersource/sink ):  18
horizon                       :  132
RESOURCES
  - renewable                 :  2   R
  - nonrenewable              :  2   N
  - doubly constrained        :  0   D
************************************************************************
PROJECT INFORMATION:
pronr.  #jobs rel.date duedate tardcost  MPM-Time
    1     16      0       16        2       16
************************************************************************
PRECEDENCE RELATIONS:
jobnr.    #modes  #successors   successors
   1        1          3           2   3   4
   2        4          3           5   6   8
   3        4          2           8  13
   4        4          3           5   9  11
   5        4          2          13  14
   6        4          3           7  11  14
   7        4          1          13
   8        4          1          10
   9        4          2          12  15
  10        4          3          11  12  17
  11        4          1          16
  12        4          1          16
  13        4          3          15  16  17
  14        4          2          15  17
  15        4          1          18
  16        4          1          18
  17        4          1          18
  18        1          0        
************************************************************************
REQUESTS/DURATIONS:
jobnr. mode duration  R 1  R 2  N 1  N 2
------------------------------------------------------------------------
  1      1     0       0    0    0    0
  2      1     1       0    9    8    9
         2     5       8    0    5    9
         3     8       0    7    5    9
         4     9       6    0    2    9
  3      1     2       5    0    3    5
         2     2       0    8    3    4
         3     5       0    7    3    3
         4    10       0    6    2    3
  4      1     1       0    8    7    8
         2     5       0    7    7    7
         3     7       0    7    6    3
         4     9       0    7    4    3
  5      1     3       6    0    3   10
         2     4       3    0    3    9
         3     4       0    3    3    9
         4     6       0    3    2    8
  6      1     2       7    0    9    9
         2     3       5    0    8    7
         3     6       3    0    8    6
         4     8       1    0    7    2
  7      1     1       0    3    7    5
         2     3       2    0    7    5
         3     7       2    0    6    5
         4     8       0    3    5    5
  8      1     1       0    8    3    9
         2     2       0    8    3    8
         3     5       5    0    3    6
         4     5       6    0    2    6
  9      1     7       0    3    8    7
         2     7       2    0    8    5
         3     8       0    3    6    4
         4     9       0    3    3    3
 10      1     1       5    0    6    7
         2     1       0    7    6    8
         3     2       0    6    5    5
         4    10       0    6    3    3
 11      1     2       0    7    4    9
         2     9      10    0    4    7
         3     9       0    6    4    7
         4    10       0    6    3    7
 12      1     4       0    8    9    6
         2     6       0    7    8    5
         3     7       5    0    7    5
         4    10       5    0    4    2
 13      1     1       0    7    9   10
         2     3       7    0    8   10
         3     4       5    0    6    9
         4     9       2    0    5    9
 14      1     3       5    0    3    7
         2     4       5    0    2    5
         3     4       0    1    2    5
         4     5       5    0    2    4
 15      1     2       7    0    8    8
         2     3       0   10    7    7
         3     3       7    0    7    7
         4     8       0    9    5    7
 16      1     4       6    0    7    5
         2     6       0    5    5    5
         3     7       6    0    5    1
         4     7       0    5    5    2
 17      1     3       8    0    3    6
         2     5       0    5    3    5
         3     5       7    0    3    5
         4     9       0    5    2    4
 18      1     0       0    0    0    0
************************************************************************
RESOURCEAVAILABILITIES:
  R 1  R 2  N 1  N 2
   16   16   87  110
************************************************************************
